100
32
5
17
32
6
8
25
12
12
20
16
18
8
1
32
9
11
27
7
31
31
6
11
17
1
2
1
3
19
2
11
3
3
2
1
3
2
2
2
2
4
17
1
3
1
17
5
5
4
17
2
2
1
3
1
1
17
6
17
4
1
1
6
21
18
6
1
4
2
4
1
16
1
19
1
2
1
4
5
2
1
3
3
1
18
1
2
1
3
7
3
1
1
2
3
2
1
2
3
2
1